NAME = file180,
TOURSIZE = 180,
LENGTH = 2970,
180,79,78,134,95,94,50,51,62,63,64,11,10,138,139,30,31,179,178,113,112,171,34,35,92,13,24,167,166,123,73,129,128,2,3,104,105,152,9,174,175,18,19,162,163,93,17,16,151,150,136,135,12,126,127,7,74,75,55,54,153,154,155,52,53,71,70,69,68,46,107,106,156,145,146,147,72,61,158,159,41,40,98,99,39,38,108,97,45,44,43,42,65,160,161,88,89,90,91,143,142,141,140,148,149,1,164,165,125,124,84,144,133,77,20,21,22,23,168,157,66,67,28,29,85,96,109,120,119,118,117,116,115,114,8,111,110,60,49,86,87,58,57,56,122,36,25,137,26,27,121,132,131,130,6,177,176,82,83,59,76,170,32,33,102,103,15,14,101,100,47,48,37,5,4,172,173,80,81,169